0 4568 6307 5
1 3124 3358 5
2 6062 4302 7
3 8848 5304 6
4 8466 6979 6
s5 4568 4302 7
s6 8466 5304 7
s7 6062 4302 7

0 3917 6414 7
1 4773 711 6
2 6435 5390 5
3 3275 613 6
4 6565 6417 5
s5 6435 6414 7
s6 3917 711 7
s7 3917 6414 7

0 1231 3717 7
1 8527 4327 6
2 3522 3441 6
3 1466 2693 7
4 2273 2290 5
s5 2273 2693 6
s6 3522 3441 6
s7 1466 2693 5

0 3599 5643 9
1 1378 813 6
2 8928 7249 8
3 5991 113 7
4 1114 6471 8
5 9297 1101 7
s6 3599 1101 7
s7 5991 1101 7
s8 3599 6471 9
s9 3599 5643 6

